500
125 125
1 100 944
2 100 55
3 100 641
4 100 571
5 100 450
6 100 830
7 99 682
8 99 393
9 99 227
10 99 603
11 99 323
12 98 886
13 98 703
14 98 465
15 98 378
16 97 441
17 97 711
18 97 957
19 97 599
20 97 113
21 97 561
22 97 782
23 96 985
24 96 623
25 96 826
26 96 33
27 95 209
28 95 69
29 95 179
30 95 668
31 95 972
32 95 87
33 94 9
34 94 517
35 94 499
36 94 486
37 94 448
38 94 310
39 94 526
40 94 277
41 94 755
42 94 571
43 94 802
44 94 299
45 93 777
46 93 513
47 93 471
48 93 943
49 93 970
50 93 577
51 93 491
52 93 853
53 93 851
54 92 797
55 92 739
56 91 275
57 91 898
58 91 94
59 91 585
60 91 319
61 91 71
62 91 72
63 91 202
64 91 404
65 90 685
66 90 648
67 90 225
68 90 629
69 90 765
70 90 787
71 90 748
72 90 105
73 90 264
74 89 624
75 89 742
76 89 992
77 89 434
78 89 246
79 89 559
80 89 118
81 89 755
82 89 562
83 89 388
84 88 627
85 88 415
86 88 684
87 88 215
88 88 940
89 87 473
90 87 503
91 87 126
92 87 119
93 87 626
94 87 680
95 87 40
96 87 321
97 87 607
98 86 452
99 86 340
100 86 180
101 85 328
102 85 889
103 85 640
104 85 997
105 85 917
106 85 659
107 85 597
108 85 543
109 85 194
110 85 636
111 84 261
112 84 533
113 84 607
114 84 398
115 83 59
116 83 91
117 83 955
118 83 221
119 82 660
120 82 202
121 82 451
122 82 991
123 82 867
124 82 634
125 82 548
126 82 334
127 81 150
128 81 654
129 80 202
130 80 444
131 80 884
132 80 202
133 80 553
134 80 294
135 80 880
136 80 875
137 80 7
138 80 881
139 79 927
140 79 780
141 79 24
142 79 123
143 79 821
144 79 214
145 79 463
146 79 407
147 78 394
148 78 83
149 78 895
150 78 102
151 78 10
152 78 510
153 77 746
154 77 6
155 77 513
156 76 223
157 76 803
158 76 825
159 75 444
160 75 962
161 75 233
162 75 825
163 75 834
164 75 562
165 75 348
166 74 867
167 74 609
168 74 671
169 74 516
170 74 536
171 74 110
172 74 831
173 73 645
174 73 980
175 73 810
176 73 760
177 73 487
178 73 192
179 73 996
180 72 94
181 72 858
182 72 993
183 72 8
184 72 539
185 71 27
186 71 821
187 71 108
188 71 46
189 71 22
190 71 779
191 71 923
192 70 944
193 70 60
194 70 162
195 70 737
196 70 348
197 70 639
198 70 59
199 70 828
200 70 1000
201 69 739
202 69 118
203 69 332
204 69 565
205 69 805
206 69 644
207 68 528
208 68 584
209 68 245
210 68 10
211 68 104
212 68 765
213 68 858
214 68 643
215 68 344
216 67 879
217 67 746
218 67 805
219 67 583
220 67 164
221 66 842
222 66 485
223 66 414
224 66 935
225 66 820
226 66 804
227 65 221
228 65 529
229 65 619
230 65 852
231 65 849
232 65 359
233 65 859
234 65 539
235 65 333
236 65 97
237 64 907
238 64 778
239 64 955
240 64 990
241 64 718
242 64 912
243 63 715
244 63 226
245 63 894
246 63 967
247 63 376
248 63 549
249 62 779
250 62 556
251 62 777
252 62 6
253 61 841
254 61 942
255 61 783
256 61 936
257 61 142
258 61 449
259 61 957
260 61 492
261 61 786
262 60 169
263 60 209
264 60 592
265 60 249
266 59 173
267 59 286
268 59 146
269 59 647
270 59 596
271 58 684
272 58 994
273 58 365
274 58 648
275 58 370
276 58 32
277 58 918
278 58 923
279 58 373
280 57 872
281 57 252
282 57 151
283 57 469
284 57 128
285 57 254
286 56 496
287 56 167
288 56 301
289 56 921
290 56 596
291 56 270
292 56 741
293 56 941
294 56 786
295 55 26
296 55 330
297 55 572
298 55 858
299 55 512
300 55 453
301 55 314
302 55 412
303 54 405
304 54 169
305 54 208
306 54 385
307 54 520
308 53 78
309 53 75
310 53 586
311 53 44
312 53 80
313 52 608
314 52 26
315 52 812
316 51 1000
317 51 987
318 51 61
319 51 477
320 51 482
321 51 943
322 51 256
323 50 479
324 50 688
325 50 901
326 50 67
327 49 366
328 49 373
329 49 272
330 49 610
331 49 986
332 49 953
333 49 22
334 49 469
335 48 562
336 48 517
337 47 45
338 47 51
339 47 689
340 47 248
341 47 634
342 47 787
343 46 733
344 46 676
345 46 513
346 46 853
347 46 857
348 46 707
349 46 252
350 46 477
351 46 264
352 46 508
353 46 429
354 46 542
355 45 596
356 45 735
357 45 685
358 45 243
359 45 722
360 45 77
361 45 925
362 44 589
363 44 734
364 44 367
365 44 920
366 44 980
367 44 294
368 44 475
369 44 724
370 44 166
371 44 17
372 44 1000
373 44 67
374 43 565
375 43 441
376 43 574
377 43 451
378 43 409
379 42 912
380 42 152
381 42 951
382 42 931
383 42 67
384 42 194
385 42 476
386 42 871
387 42 650
388 42 479
389 42 754
390 41 689
391 41 553
392 41 943
393 41 278
394 41 264
395 41 418
396 41 640
397 41 632
398 40 726
399 40 230
400 40 21
401 39 340
402 39 803
403 39 529
404 39 451
405 38 825
406 38 948
407 38 589
408 38 730
409 37 385
410 37 960
411 37 631
412 37 653
413 37 889
414 37 644
415 36 475
416 36 642
417 36 790
418 36 674
419 36 326
420 36 951
421 36 877
422 36 170
423 36 495
424 36 294
425 36 256
426 36 723
427 35 4
428 35 736
429 35 937
430 35 178
431 35 483
432 35 221
433 34 1000
434 34 96
435 34 456
436 34 435
437 34 528
438 34 127
439 34 261
440 34 219
441 34 461
442 33 149
443 33 880
444 33 222
445 32 364
446 32 906
447 32 137
448 32 131
449 32 997
450 32 689
451 32 49
452 32 87
453 31 659
454 31 547
455 31 519
456 31 25
457 31 544
458 30 57
459 30 673
460 30 747
461 30 342
462 30 852
463 30 913
464 30 773
465 30 270
466 30 257
467 29 490
468 29 62
469 29 734
470 29 719
471 29 598
472 28 325
473 28 306
474 28 753
475 28 973
476 28 284
477 28 696
478 28 624
479 28 970
480 27 840
481 27 848
482 27 378
483 27 775
484 27 995
485 27 947
486 27 872
487 27 565
488 27 586
489 26 453
490 26 414
491 26 748
492 26 302
493 26 120
494 25 486
495 25 186
496 25 787
497 25 59
498 25 776
499 25 886
500 25 917
